 200 77 
 15 54 40 30 76 84 12 11 100 39 98 72 
 78 33 100 23 38 28 91 55 14 57 72 36 
 99 35 100 85 8 54 77 45 26 6 81 22 
 66 10 33 45 14 40 40 17 56 70 58 94 
 83 13 96 48 99 97 72 24 46 88 54 78 
 96 73 93 92 6 23 24 11 20 64 82 80 
 6 12 33 4 4 
 3 
 33 36 37 
 68 
 1 2 3 4 5 6 7 8 9 10 11 12 
 13 14 15 16 18 19 20 21 22 23 24 26 
 27 28 29 30 31 32 34 35 36 37 38 40 
 41 43 44 45 46 47 48 50 51 52 54 56 
 57 58 59 60 61 62 63 64 65 66 67 68 
 69 70 71 72 73 74 75 77 
 15 
 2 6 9 12 19 25 29 31 39 49 53 63 
 68 70 72 
 42 
 1 2 4 5 6 7 9 11 12 14 16 19 
 24 25 27 29 30 31 32 35 37 38 39 42 
 44 46 47 49 52 55 57 59 61 64 66 69 
 70 71 72 73 74 77 
 24 
 2 4 8 9 13 16 18 19 22 23 26 27 
 30 32 35 38 41 48 52 58 60 64 74 75 
 45 
 5 6 8 9 10 11 13 14 16 19 21 22 
 24 25 26 28 29 31 33 34 36 38 40 41 
 42 44 45 46 48 49 50 51 54 55 57 60 
 63 64 65 66 67 68 69 70 71 
 62 
 1 3 4 7 8 9 10 11 12 13 14 16 
 17 18 20 21 24 25 26 27 28 29 31 32 
 33 34 35 36 37 38 39 40 41 43 44 46 
 48 50 51 52 53 54 55 56 57 58 59 60 
 61 62 63 64 65 67 69 70 71 72 73 74 
 76 77 
 35 
 1 2 4 6 7 8 12 13 15 16 18 19 
 21 27 29 31 35 40 47 48 50 52 53 54 
 56 57 61 66 68 69 70 71 74 75 76 
 68 
 1 2 3 4 5 7 8 9 10 11 12 14 
 15 16 17 18 20 21 23 25 27 28 29 30 
 31 32 33 34 35 36 38 39 40 41 42 43 
 44 45 46 47 48 50 51 52 54 55 56 57 
 58 59 60 61 62 63 64 65 66 67 68 69 
 70 71 72 73 74 75 76 77 
 57 
 1 2 3 4 5 6 8 9 10 12 13 14 
 15 16 17 19 21 22 23 26 27 29 30 33 
 34 35 36 37 38 39 42 44 45 46 47 48 
 49 52 55 56 57 59 60 61 63 64 65 66 
 67 68 69 71 73 74 75 76 77 
 44 
 1 2 4 5 6 7 9 11 12 15 19 20 
 21 22 25 27 29 35 36 37 39 41 42 44 
 45 46 49 52 53 54 55 56 57 58 60 61 
 66 67 68 69 72 75 76 77 
 26 
 2 3 5 6 7 12 16 19 23 27 31 35 
 39 40 43 48 49 51 52 58 61 63 64 67 
 71 76 
 20 
 2 3 5 9 10 11 17 27 31 39 43 47 
 48 51 54 57 59 69 73 77 
 33 
 6 11 14 15 16 19 21 22 23 31 33 36 
 37 38 39 40 45 46 51 52 53 54 58 59 
 60 62 63 65 66 69 70 72 75 
 74 
 1 3 4 6 7 8 9 10 11 12 13 14 
 15 16 17 18 19 20 21 23 24 25 26 27 
 28 29 30 31 32 33 34 35 36 37 38 39 
 40 41 42 43 44 45 46 47 48 49 50 51 
 52 53 54 55 56 57 58 59 60 61 62 63 
 64 65 66 67 68 69 70 71 72 73 74 75 
 76 77 
 36 
 3 4 12 14 16 18 22 24 29 32 33 37 
 38 40 41 42 44 48 49 50 51 52 54 56 
 58 59 60 61 67 68 69 70 71 72 75 76 
 61 
 1 2 3 5 6 7 8 9 11 12 13 14 
 16 18 19 20 21 23 24 25 26 27 29 32 
 33 34 36 37 38 39 40 41 42 43 44 45 
 47 48 52 53 54 55 56 57 58 59 60 61 
 65 66 67 68 69 70 71 72 73 74 75 76 
 77 
 56 
 1 2 3 4 5 6 9 10 11 12 15 16 
 18 20 23 24 25 26 27 28 29 31 32 33 
 34 37 38 41 42 43 44 45 47 48 49 50 
 51 52 53 55 56 57 58 59 61 62 63 65 
 66 67 69 71 72 74 75 76 
 53 
 2 5 6 7 8 9 11 12 13 14 15 16 
 19 21 22 23 24 27 28 30 31 33 34 35 
 39 40 41 42 43 45 46 48 50 51 53 54 
 56 57 59 60 61 63 64 67 68 70 71 72 
 73 74 75 76 77 
 52 
 1 4 6 7 8 9 17 19 22 23 24 25 
 26 27 28 29 30 31 32 35 36 37 38 39 
 40 41 42 43 44 45 46 47 49 51 52 53 
 54 55 56 58 59 60 61 67 68 70 71 72 
 73 75 76 77 
 44 
 1 4 6 7 8 11 13 16 18 20 22 24 
 25 27 30 31 34 38 39 42 44 45 46 49 
 52 53 54 55 56 57 58 59 61 64 65 66 
 67 68 69 71 72 73 74 76 
 44 
 2 3 5 6 7 9 11 13 15 16 22 23 
 24 26 27 28 33 35 36 37 38 40 43 45 
 47 49 50 51 53 54 55 56 58 61 62 64 
 65 68 69 70 74 75 76 77 
 37 
 1 6 7 8 9 10 11 12 13 14 16 18 
 19 26 27 29 31 35 40 41 42 45 47 49 
 50 51 53 58 60 62 63 64 65 67 70 71 
 76 
 26 
 1 2 8 9 13 15 17 29 30 35 36 38 
 42 45 46 48 50 56 58 63 64 69 72 74 
 75 77 
 69 
 1 2 3 4 5 6 8 9 10 11 12 13 
 14 15 16 17 19 20 21 23 24 25 26 27 
 28 29 30 31 32 33 34 35 36 37 38 39 
 41 43 44 45 46 47 48 50 51 53 54 55 
 56 57 58 59 60 61 62 63 64 65 66 67 
 68 69 70 71 72 73 74 75 76 
 10 
 11 12 15 18 30 49 51 62 66 74 
 39 
 1 2 8 9 11 13 16 18 20 21 24 25 
 27 29 31 32 33 34 35 36 42 45 46 47 
 49 50 51 52 53 57 58 61 63 68 69 71 
 72 75 76 
 3 
 34 38 77 
 33 
 2 3 4 5 6 13 20 22 24 25 31 32 
 33 34 38 39 40 43 44 47 49 50 52 54 
 55 59 62 63 66 67 69 70 71 
 47 
 1 2 3 6 10 11 12 14 15 17 20 21 
 22 27 28 30 32 33 35 37 38 40 43 44 
 45 47 49 50 51 54 55 56 57 58 59 61 
 62 63 65 67 68 70 71 74 75 76 77 
 20 
 1 11 13 14 21 24 25 31 37 39 42 43 
 46 51 52 53 57 65 72 77 
 75 
 1 2 3 4 5 7 8 9 10 11 12 13 
 14 15 16 17 18 19 20 21 22 23 24 25 
 26 27 28 29 30 31 32 33 34 35 36 37 
 38 39 40 41 42 43 44 45 46 47 48 49 
 50 51 52 53 54 55 56 57 58 59 60 61 
 62 63 64 66 67 68 69 70 71 72 73 74 
 75 76 77 
 23 
 7 17 22 24 25 26 27 28 34 35 43 44 
 47 50 52 56 60 62 63 64 67 69 77 
 57 
 1 2 3 4 5 6 7 8 9 10 11 15 
 16 19 20 21 22 24 25 26 27 28 30 31 
 32 35 36 37 38 39 40 41 43 44 46 48 
 50 51 52 53 55 56 57 61 62 63 64 65 
 66 68 69 70 71 72 74 75 77 
 38 
 1 2 3 4 8 10 11 12 16 18 19 20 
 21 22 25 27 29 31 32 37 39 40 43 50 
 53 54 57 59 60 63 64 65 66 69 70 71 
 76 77 
 22 
 1 4 7 9 12 15 16 17 22 25 26 40 
 45 48 56 57 59 66 67 68 69 72 
 62 
 1 3 4 5 6 7 9 10 12 13 14 15 
 17 18 21 22 23 24 25 26 27 28 30 31 
 32 33 34 35 36 37 38 39 40 41 42 45 
 47 50 51 52 53 55 56 57 58 59 61 62 
 63 64 65 66 67 69 70 71 72 73 74 75 
 76 77 
 21 
 3 4 8 10 16 18 29 36 42 43 45 48 
 49 50 53 58 60 65 66 68 76 
 17 
 1 2 14 15 20 24 28 39 41 45 46 49 
 54 56 59 63 70 
 20 
 3 4 7 9 18 24 25 28 29 30 51 61 
 64 66 67 69 70 71 72 77 
 61 
 1 2 3 5 6 7 8 10 13 14 15 16 
 17 18 19 20 21 22 23 24 25 26 30 31 
 32 33 34 35 36 37 39 40 41 42 43 44 
 46 49 50 51 52 53 54 55 57 58 59 60 
 61 62 63 64 65 66 67 68 69 70 74 76 
 77 
 55 
 1 2 4 5 6 9 10 11 12 13 14 17 
 18 19 20 21 22 23 24 25 26 27 28 29 
 30 32 34 35 36 37 39 40 42 43 46 47 
 48 51 52 53 54 55 56 58 60 62 63 64 
 66 67 70 71 74 75 77 
 20 
 2 7 8 12 22 25 31 34 39 50 56 57 
 62 65 68 69 70 71 72 74 
 40 
 2 3 4 6 7 8 10 11 12 14 17 18 
 22 23 24 29 31 34 35 36 37 38 39 40 
 41 48 49 54 55 58 59 60 62 63 65 68 
 70 71 73 77 
 30 
 1 3 5 6 7 10 11 12 13 14 16 19 
 23 25 28 31 33 34 41 45 51 52 55 60 
 62 63 72 73 74 75 
 7 
 6 9 20 63 66 68 69 
 14 
 3 6 7 8 12 31 33 38 43 44 50 53 
 68 69 
 3 
 38 61 77 
 62 
 1 2 3 4 5 7 8 10 11 12 14 15 
 16 17 19 20 21 22 23 24 25 26 27 28 
 29 30 31 32 33 34 35 37 38 40 41 42 
 43 44 46 47 48 49 50 51 52 53 55 56 
 57 58 60 61 62 64 65 69 70 72 73 74 
 75 76 
 48 
 1 4 5 7 10 11 12 14 15 17 19 20 
 24 27 29 31 32 36 37 38 39 40 41 42 
 43 44 46 48 49 50 52 53 55 56 58 60 
 61 63 64 65 66 67 68 70 71 72 74 77 
 66 
 1 2 3 4 6 7 8 9 10 11 12 13 
 14 16 17 18 19 20 21 22 23 24 25 26 
 27 30 31 32 33 34 35 36 38 41 42 43 
 44 45 46 47 49 50 51 52 54 55 56 57 
 58 59 60 61 62 63 64 65 67 68 70 71 
 72 73 74 75 76 77 
 44 
 4 5 6 8 9 10 11 15 16 17 21 23 
 24 25 26 27 31 33 34 35 36 37 38 40 
 41 42 43 46 47 49 51 53 58 59 62 65 
 66 69 71 72 73 74 75 76 
 34 
 1 5 6 7 8 12 13 14 15 17 20 22 
 23 24 26 28 29 31 32 34 36 37 39 41 
 42 45 46 47 53 54 57 60 61 63 
 34 
 4 5 9 11 13 14 22 24 25 26 27 28 
 32 34 36 40 44 45 49 51 52 53 59 61 
 62 65 66 68 69 70 71 72 73 77 
 5 
 13 18 20 30 49 
 21 
 1 2 7 8 17 20 22 24 25 30 33 34 
 44 49 51 55 60 64 67 75 77 
 47 
 2 4 5 7 8 12 13 14 16 18 19 20 
 23 26 29 31 32 33 34 35 36 38 39 40 
 41 42 45 46 47 48 50 51 52 55 57 58 
 59 60 63 65 66 67 69 70 74 76 77 
 33 
 2 3 5 7 10 11 13 16 17 18 22 23 
 26 27 29 31 32 36 37 38 45 50 54 56 
 57 59 60 62 63 66 72 74 75 
 35 
 2 3 10 12 13 15 21 22 23 24 25 26 
 29 32 35 36 37 43 45 46 47 48 50 51 
 53 54 56 60 64 66 68 69 73 74 75 
 2 
 23 25 
 70 
 1 2 3 4 5 7 9 10 11 12 13 14 
 15 16 17 18 19 20 21 22 23 25 26 27 
 28 29 30 31 32 33 34 35 36 38 39 40 
 41 42 43 44 45 46 47 48 49 50 51 52 
 53 54 55 56 57 58 59 60 61 62 63 64 
 65 67 68 69 70 71 72 75 76 77 
 29 
 1 5 8 9 28 29 34 35 37 40 43 44 
 45 46 51 52 53 54 55 56 60 61 63 65 
 67 68 70 73 74 
 13 
 1 4 5 22 30 36 37 42 43 46 54 56 
 76 
 21 
 2 6 14 19 20 22 26 27 30 32 33 45 
 47 51 54 57 68 72 73 75 77 
 25 
 2 3 5 8 11 13 16 17 18 20 23 26 
 27 28 31 35 41 48 54 56 57 61 62 64 
 72 
 72 
 1 2 3 4 5 6 7 9 10 11 12 13 
 14 15 16 17 18 20 21 22 23 24 25 26 
 27 29 30 31 32 33 34 35 36 37 38 39 
 40 41 43 44 45 46 47 48 49 50 51 52 
 53 54 55 56 57 58 59 60 61 63 64 65 
 66 67 68 69 70 71 72 73 74 75 76 77 
 44 
 2 4 5 7 8 9 10 12 13 14 16 17 
 18 19 21 23 27 28 29 30 31 32 33 34 
 35 36 42 43 45 48 51 52 53 54 57 60 
 61 63 67 68 71 72 75 77 
 42 
 3 7 8 9 11 12 19 21 24 26 29 33 
 35 36 37 38 39 40 42 45 46 47 51 53 
 54 55 56 57 58 60 61 62 65 66 68 69 
 70 72 73 75 76 77 
 7 
 1 11 12 18 19 22 73 
 5 
 10 25 26 52 74 
 15 
 9 15 16 17 18 32 35 36 37 41 42 52 
 53 57 67 
 54 
 1 2 4 5 6 8 9 10 12 14 17 18 
 19 20 22 25 26 27 28 29 30 32 33 34 
 35 36 37 38 40 41 42 45 47 48 49 52 
 53 55 56 57 58 61 62 63 64 65 66 68 
 70 72 73 74 75 76 
 33 
 2 3 6 8 9 10 11 12 14 16 19 20 
 30 32 33 35 36 37 38 41 49 50 51 54 
 58 59 63 64 65 66 70 71 76 
 13 
 1 16 33 35 41 43 50 54 70 72 73 74 
 77 
 53 
 1 4 5 6 7 8 9 10 11 13 14 15 
 16 18 19 20 21 22 25 27 28 31 33 34 
 35 36 37 38 41 42 44 45 46 47 48 49 
 50 52 53 56 57 59 61 62 64 65 69 71 
 73 74 75 76 77 
 68 
 1 2 3 5 6 7 8 9 11 12 13 14 
 15 16 17 18 19 20 21 22 24 25 26 27 
 28 29 30 31 32 33 35 36 37 38 40 41 
 42 43 44 45 46 47 48 49 50 51 52 53 
 54 55 56 58 59 60 61 62 63 65 66 67 
 68 69 70 71 74 75 76 77 
 58 
 1 2 3 4 5 6 8 10 11 12 13 14 
 15 16 17 18 19 20 23 25 26 27 28 29 
 30 31 32 33 34 35 37 40 42 43 44 46 
 47 49 50 51 53 54 55 56 57 60 61 62 
 63 64 65 67 68 69 73 74 75 76 
 45 
 1 2 7 8 9 11 12 13 15 17 18 19 
 20 21 23 24 26 28 29 30 32 35 36 40 
 42 45 48 49 50 51 52 53 54 55 56 57 
 58 59 60 61 66 67 69 70 74 
 29 
 2 3 6 8 9 12 18 21 22 27 28 31 
 32 35 36 39 41 44 45 46 48 50 51 61 
 64 67 72 74 76 
 12 
 13 33 36 40 45 48 50 58 59 61 75 76 
 21 
 7 8 11 12 21 25 33 38 42 46 49 50 
 53 56 58 64 65 66 67 71 74 
 36 
 2 3 4 9 13 14 16 19 21 22 23 28 
 33 34 36 37 39 42 43 44 45 50 52 53 
 56 58 60 61 64 65 67 69 70 73 74 76 
 71 
 1 2 3 4 5 6 7 8 9 10 11 13 
 14 15 17 19 20 21 22 23 24 25 26 27 
 28 29 30 31 32 33 34 35 36 37 38 39 
 40 41 42 43 44 45 47 48 49 50 51 52 
 54 55 57 58 59 60 61 62 63 64 65 66 
 67 68 69 70 71 72 73 74 75 76 77 
 43 
 2 4 5 8 11 13 14 15 16 17 18 24 
 26 27 28 30 31 32 33 34 36 40 41 44 
 45 47 51 52 53 54 56 57 59 60 62 63 
 65 67 69 70 71 72 77 
 28 
 1 2 5 6 8 11 19 21 23 27 29 30 
 32 33 36 41 45 48 49 50 54 61 65 70 
 71 74 75 76 
 70 
 2 3 4 5 6 7 8 9 11 12 13 14 
 15 16 17 18 19 20 21 22 23 24 25 26 
 27 28 29 30 31 32 33 34 35 36 37 38 
 40 41 42 43 45 46 47 48 49 50 51 52 
 53 54 55 56 58 59 61 62 63 64 65 66 
 68 69 70 71 72 73 74 75 76 77 
 36 
 2 4 6 8 9 10 12 13 14 16 19 21 
 23 26 32 33 38 40 41 47 48 49 54 59 
 60 61 63 64 65 66 68 69 70 71 75 76 
 42 
 3 4 6 7 8 11 14 15 16 17 18 20 
 22 23 24 26 27 28 29 30 32 33 40 41 
 44 46 48 49 50 51 52 55 56 57 59 60 
 61 64 65 68 70 73 
 11 
 6 9 13 14 17 25 41 49 57 75 77 
 74 
 1 2 3 4 5 6 7 8 9 10 11 12 
 13 14 15 16 17 18 19 20 21 22 23 24 
 25 26 27 28 29 30 31 32 33 34 35 36 
 37 38 39 40 41 42 43 44 46 47 48 49 
 50 51 52 53 54 55 56 57 58 59 60 61 
 62 63 64 65 66 67 68 69 71 73 74 75 
 76 77 
 10 
 15 20 28 33 41 42 57 66 67 73 
 50 
 1 3 5 6 7 11 12 13 16 17 19 20 
 21 22 23 25 28 29 30 31 34 35 37 39 
 40 43 44 47 48 49 50 51 53 56 57 58 
 59 60 61 62 64 65 67 68 69 70 71 72 
 74 77 
 34 
 5 6 7 9 16 17 18 19 20 21 22 23 
 25 26 28 31 33 35 38 39 42 45 50 55 
 57 59 60 61 64 71 72 73 74 76 
 44 
 1 3 6 7 9 14 15 16 18 19 21 23 
 24 26 27 28 29 30 32 33 35 36 38 39 
 40 41 44 47 48 49 50 51 52 54 57 59 
 60 61 63 64 65 68 69 77 
 23 
 2 3 4 11 15 16 23 27 29 34 35 39 
 41 42 44 48 57 58 59 60 63 74 75 
 62 
 1 2 3 4 5 6 7 8 9 10 11 12 
 13 14 15 16 19 20 21 23 24 25 26 27 
 28 29 30 31 32 35 39 40 41 43 44 45 
 46 52 53 54 56 57 58 59 60 61 62 63 
 64 65 66 67 68 69 70 71 72 73 74 75 
 76 77 
 76 
 1 2 3 4 5 6 7 8 9 10 11 12 
 13 14 15 16 17 18 19 20 21 22 23 24 
 25 26 27 28 29 30 31 32 33 34 35 36 
 37 38 39 40 41 42 43 44 45 46 47 48 
 49 50 51 52 53 55 56 57 58 59 60 61 
 62 63 64 65 66 67 68 69 70 71 72 73 
 74 75 76 77 
 56 
 2 4 5 6 7 9 10 11 12 13 14 15 
 16 17 18 19 20 22 23 24 25 26 27 29 
 31 32 34 37 38 39 40 46 47 48 50 51 
 52 53 54 55 57 58 60 61 62 63 64 66 
 67 69 70 71 72 73 75 76 
 58 
 1 3 5 6 7 9 10 11 13 15 16 17 
 18 19 20 21 22 23 24 26 27 28 29 30 
 31 33 34 35 37 38 39 40 41 42 43 44 
 46 47 48 50 51 52 56 57 58 60 61 62 
 65 66 67 68 69 71 73 74 75 77 
 47 
 5 6 7 8 9 10 13 14 15 16 17 18 
 20 22 23 24 26 27 28 30 32 34 36 37 
 38 40 43 46 48 49 50 52 57 58 59 61 
 63 64 65 66 68 69 70 71 73 74 77 
 52 
 3 8 9 10 14 15 16 17 19 20 21 23 
 24 25 26 28 29 30 31 32 33 34 38 40 
 41 42 43 44 46 47 49 51 53 54 55 56 
 57 58 59 60 61 62 65 66 67 70 71 72 
 74 75 76 77 
 76 
 1 2 3 4 5 6 7 8 9 10 11 12 
 13 14 15 16 17 18 19 20 21 22 23 24 
 25 26 27 28 29 30 31 32 33 34 35 36 
 37 38 39 40 41 42 43 44 45 46 47 48 
 49 50 51 52 53 54 55 56 57 58 60 61 
 62 63 64 65 66 67 68 69 70 71 72 73 
 74 75 76 77 
 6 
 4 10 42 43 53 75 
 15 
 11 14 16 17 27 30 31 35 36 40 47 50 
 68 72 75 
 9 
 9 21 26 34 38 54 59 68 70 
 42 
 1 2 4 6 7 9 10 14 16 19 21 27 
 28 29 32 34 35 38 42 44 45 46 48 49 
 50 51 52 53 55 56 58 60 62 63 64 66 
 68 69 70 73 75 76 
 2 
 64 76 
 18 
 2 3 5 10 27 28 30 33 40 46 50 54 
 55 64 67 69 74 76 
 31 
 3 5 7 10 15 17 18 21 26 31 32 34 
 36 38 43 44 48 50 52 54 55 57 61 62 
 65 67 68 69 71 72 73 
 61 
 2 3 4 5 8 9 12 13 14 15 16 17 
 18 19 20 21 22 23 24 25 26 29 30 31 
 32 33 34 35 36 37 38 39 40 42 43 45 
 46 47 48 49 50 51 52 53 54 56 57 59 
 61 62 63 64 66 68 69 70 71 73 74 76 
 77 
 9 
 5 7 13 14 16 33 34 58 64 
 6 
 18 24 28 39 53 63 
 9 
 7 8 15 17 24 33 38 58 67 
 42 
 1 2 3 4 6 7 9 11 18 19 23 24 
 26 30 32 33 34 36 37 39 43 45 46 47 
 49 51 53 54 55 57 59 62 63 64 66 67 
 70 71 72 74 76 77 
 19 
 3 11 20 21 22 24 26 30 31 46 48 49 
 50 54 55 57 58 73 76 
 56 
 1 2 4 5 6 7 8 9 10 11 12 14 
 17 19 20 22 24 25 26 27 28 29 31 33 
 34 35 36 37 40 41 42 43 44 45 46 49 
 50 53 54 55 56 57 58 59 60 61 63 64 
 65 66 67 68 70 72 74 77 
 48 
 1 2 10 13 15 17 18 19 21 22 23 24 
 25 26 27 28 29 30 32 33 39 41 42 43 
 45 46 47 49 50 51 52 53 55 57 61 62 
 63 64 65 66 67 70 72 73 74 75 76 77 
 9 
 12 14 20 23 33 43 49 68 71 
 15 
 1 20 29 30 33 34 36 38 39 40 47 59 
 60 65 69 
 65 
 1 2 3 4 5 6 7 8 9 10 11 12 
 13 14 15 16 17 18 19 21 22 23 24 25 
 26 27 28 29 30 31 32 34 36 37 38 39 
 40 41 42 43 44 45 47 48 49 50 51 52 
 53 56 57 58 60 62 65 66 69 70 71 72 
 73 74 75 76 77 
 37 
 4 5 8 13 14 19 20 21 24 25 26 30 
 32 33 36 37 38 40 41 43 46 47 50 53 
 55 56 57 58 62 63 64 65 66 67 69 73 
 74 
 27 
 2 3 4 5 6 15 18 19 21 22 28 32 
 33 35 36 40 42 43 44 45 46 47 50 58 
 63 70 71 
 28 
 2 6 8 13 14 15 16 17 19 22 25 27 
 30 37 47 50 52 54 57 60 63 65 66 67 
 70 72 74 77 
 68 
 1 2 3 4 5 6 7 8 9 10 11 13 
 14 15 16 17 18 19 20 22 23 24 25 26 
 27 29 30 32 33 34 35 36 37 38 39 40 
 41 42 43 44 45 46 47 48 49 50 51 52 
 53 55 56 57 58 59 60 61 62 64 66 67 
 68 70 71 72 74 75 76 77 
 31 
 6 8 13 14 15 18 20 21 23 24 32 33 
 34 38 43 47 50 51 52 54 55 57 58 59 
 64 65 66 68 70 71 75 
 40 
 1 4 7 8 9 12 13 17 18 19 20 22 
 25 27 29 31 36 37 39 40 41 42 45 46 
 53 54 56 59 60 61 62 63 67 68 71 72 
 74 75 76 77 
 3 
 29 71 73 
 70 
 2 3 4 5 6 7 8 9 10 12 13 14 
 15 16 17 18 20 21 22 23 24 25 26 27 
 29 30 31 32 33 34 35 36 37 38 39 40 
 41 42 43 44 45 46 47 48 49 50 51 52 
 53 54 55 56 57 59 60 61 62 63 64 65 
 66 68 69 70 71 73 74 75 76 77 
 25 
 1 3 4 5 8 15 16 17 20 21 23 25 
 31 40 44 45 51 57 62 63 65 70 71 73 
 77 
 8 
 1 3 14 17 30 32 57 59 
 66 
 1 2 4 5 6 7 8 9 10 11 12 13 
 15 17 18 20 21 22 23 24 25 26 27 28 
 30 31 34 35 36 37 38 39 40 41 42 44 
 45 46 47 48 49 50 51 53 54 55 57 58 
 59 60 61 62 63 64 65 66 67 68 69 70 
 72 73 74 75 76 77 
 32 
 2 6 8 11 12 14 15 16 19 22 24 30 
 33 38 41 42 43 45 46 47 49 50 51 53 
 59 60 65 67 68 72 73 74 
 28 
 2 10 11 14 15 18 20 23 24 25 30 31 
 33 38 40 44 45 47 49 53 58 59 62 65 
 66 68 75 77 
 72 
 1 2 3 4 5 6 7 8 10 11 12 13 
 14 15 16 17 18 19 20 21 22 24 25 26 
 27 29 30 31 32 33 34 35 36 37 38 39 
 40 41 42 43 44 45 46 47 48 49 50 51 
 52 53 54 56 57 58 59 60 61 62 63 64 
 65 66 67 69 70 71 72 73 74 75 76 77 
 10 
 2 22 29 33 34 47 51 56 71 76 
 64 
 1 2 4 5 7 8 9 11 12 13 15 17 
 18 19 20 21 23 24 25 26 28 29 31 32 
 33 34 35 37 38 39 40 41 42 43 44 45 
 46 47 48 49 50 51 53 54 55 56 57 58 
 59 61 62 63 64 65 66 67 68 69 70 71 
 72 73 74 75 
 20 
 2 4 10 14 16 24 26 28 36 38 39 45 
 46 48 50 51 63 67 72 77 
 20 
 1 3 4 5 6 7 10 12 13 22 26 28 
 32 38 46 58 59 65 68 73 
 63 
 2 3 5 6 7 8 9 10 11 12 13 14 
 16 17 18 19 20 21 22 23 24 25 26 27 
 29 31 32 33 34 35 36 37 38 40 42 43 
 45 47 48 49 50 51 52 53 55 57 58 59 
 60 61 64 65 66 67 68 69 70 71 73 74 
 75 76 77 
 33 
 4 6 7 8 9 10 12 16 18 19 21 23 
 24 31 33 37 40 42 44 48 49 50 55 56 
 59 60 62 63 64 68 70 74 76 
 53 
 1 2 4 6 7 8 9 10 13 15 16 17 
 18 19 20 22 24 26 28 29 30 32 33 35 
 36 38 42 43 44 45 46 47 49 50 51 56 
 57 60 61 62 64 65 66 67 68 69 70 71 
 72 73 75 76 77 
 67 
 1 2 3 4 5 6 7 8 9 10 11 12 
 13 14 15 16 17 18 19 20 21 22 23 25 
 26 27 29 30 31 32 34 35 36 37 38 39 
 40 41 42 44 45 46 47 48 51 52 53 54 
 55 56 57 58 59 60 61 62 63 64 66 68 
 70 71 72 73 74 75 76 
 34 
 3 4 7 9 12 13 17 23 24 25 27 30 
 32 33 35 37 39 40 41 42 43 44 48 49 
 52 54 57 59 60 61 63 70 75 77 
 45 
 1 2 4 5 6 7 8 10 12 14 15 17 
 18 20 22 23 24 25 27 28 29 31 32 35 
 38 39 42 43 46 48 50 52 54 55 56 58 
 63 64 68 70 71 72 73 76 77 
 39 
 2 3 5 6 9 10 13 14 15 18 22 24 
 25 26 29 30 31 33 37 39 40 41 42 43 
 45 51 57 58 59 60 61 62 66 68 71 72 
 74 75 77 
 75 
 1 2 3 4 5 6 7 8 9 10 11 12 
 13 14 15 16 17 18 19 20 21 22 23 24 
 25 26 27 28 29 30 31 32 33 34 35 36 
 37 38 39 40 41 42 43 44 45 47 48 49 
 50 51 52 53 54 55 56 57 58 59 60 61 
 62 63 64 65 66 67 68 69 70 71 72 73 
 74 75 77 
 62 
 2 4 7 8 9 10 11 12 13 14 15 16 
 17 19 20 21 24 25 27 28 29 30 31 32 
 33 34 35 37 38 40 41 42 43 44 45 46 
 47 48 49 50 51 52 53 54 55 56 57 58 
 59 62 63 64 65 68 69 70 71 72 73 75 
 76 77 
 74 
 1 2 3 4 5 6 7 8 9 10 11 12 
 13 14 15 16 17 18 19 20 21 22 23 24 
 25 26 27 28 29 30 31 32 33 34 35 37 
 38 39 40 41 42 43 44 45 46 47 48 49 
 50 51 52 53 54 55 56 57 58 59 60 61 
 62 63 65 66 67 68 69 70 71 72 73 74 
 75 77 
 45 
 1 2 5 7 11 12 20 22 23 24 26 29 
 30 31 32 34 37 38 39 40 43 44 45 46 
 47 48 49 50 55 56 57 59 61 62 63 65 
 66 69 70 71 72 73 74 75 77 
 46 
 1 3 4 5 7 8 10 15 16 17 18 19 
 20 21 22 23 24 27 29 31 32 33 35 36 
 37 40 41 42 48 49 50 52 55 56 58 59 
 63 65 66 67 70 71 72 73 74 77 
 43 
 4 5 6 8 10 11 12 15 17 19 22 23 
 24 26 27 28 29 30 31 32 33 34 35 36 
 37 40 42 43 46 50 56 57 59 63 64 65 
 66 68 69 70 72 75 76 
 53 
 2 3 5 7 8 9 10 11 12 13 14 15 
 17 18 19 20 21 22 23 24 25 27 28 29 
 31 33 34 36 38 39 40 41 46 47 48 49 
 50 51 54 58 60 61 62 64 66 67 68 69 
 71 72 74 75 77 
 74 
 1 2 3 4 5 6 7 8 9 10 11 12 
 13 14 15 16 17 18 19 20 21 22 23 25 
 26 27 28 29 30 31 32 33 34 35 36 37 
 38 39 40 41 42 43 44 45 46 47 48 49 
 51 52 53 55 56 57 58 59 60 61 62 63 
 64 65 66 67 68 69 70 71 72 73 74 75 
 76 77 
 53 
 3 4 5 6 8 9 10 12 13 14 15 16 
 17 18 19 20 21 22 25 26 27 28 29 34 
 35 36 38 39 41 42 44 45 46 47 49 50 
 51 55 56 57 58 59 60 63 64 65 67 68 
 70 72 74 75 77 
 64 
 1 2 3 5 6 7 8 9 10 11 12 13 
 14 15 16 17 18 19 20 21 22 23 24 26 
 27 28 29 32 34 35 36 37 38 39 40 42 
 44 45 47 48 49 50 51 52 54 55 56 57 
 58 59 60 61 63 64 65 66 67 68 69 70 
 73 74 75 77 
 8 
 5 9 30 32 42 54 57 69 
 20 
 1 2 7 13 28 29 31 33 34 35 38 40 
 42 46 52 56 65 69 70 74 
 27 
 6 11 13 14 23 24 25 26 27 29 36 37 
 38 40 45 47 50 51 54 56 60 61 65 69 
 71 73 74 
 22 
 3 4 6 8 13 20 35 37 44 47 50 53 
 55 57 60 61 67 69 70 74 75 76 
 24 
 2 10 18 21 25 28 32 33 34 36 38 40 
 41 51 55 58 60 62 67 68 72 73 74 77 
 68 
 1 4 5 6 7 8 9 10 11 12 13 14 
 15 16 17 18 19 20 21 22 23 24 25 27 
 28 29 30 31 32 33 34 35 36 37 38 39 
 40 41 42 44 46 47 48 49 52 53 54 55 
 57 58 60 61 62 63 64 65 66 67 68 69 
 70 71 72 73 74 75 76 77 
 63 
 1 2 3 4 5 6 8 9 10 11 12 18 
 19 21 22 24 25 27 28 29 30 31 32 33 
 34 35 36 37 38 39 40 41 42 43 44 45 
 46 47 49 51 52 53 56 57 58 59 60 61 
 62 63 64 65 66 67 68 70 71 72 73 74 
 75 76 77 
 19 
 1 4 6 15 27 29 35 43 44 45 49 50 
 55 57 61 63 71 73 77 
 11 
 1 8 27 34 42 43 44 45 49 52 68 
 33 
 2 3 4 5 6 8 10 13 14 15 16 19 
 20 22 25 28 29 35 37 38 39 40 45 50 
 51 52 57 58 64 67 69 71 77 
 57 
 1 2 3 5 6 7 8 9 10 11 14 15 
 16 17 18 19 20 23 24 25 26 27 29 30 
 31 32 33 34 35 37 40 41 42 43 44 45 
 46 48 49 50 51 52 53 54 55 56 57 59 
 60 61 63 64 69 70 71 72 76 
 35 
 1 3 4 5 7 8 9 10 15 16 17 19 
 21 22 23 24 26 27 29 31 32 33 34 41 
 43 45 52 53 56 57 58 64 65 67 76 
 48 
 1 2 3 5 11 12 14 15 16 17 18 22 
 23 24 25 26 27 29 30 31 33 34 36 38 
 39 41 45 46 47 49 50 51 53 54 56 57 
 61 63 64 65 66 67 68 69 70 73 74 76 
 22 
 3 7 8 19 20 24 31 32 35 44 47 51 
 54 56 58 60 66 67 68 71 75 77 
 59 
 1 2 3 4 5 6 7 9 10 11 12 13 
 16 19 20 22 23 24 25 26 27 28 29 31 
 32 34 35 36 37 38 39 40 42 43 44 45 
 47 48 50 52 53 54 55 56 57 58 59 62 
 63 64 65 67 68 69 70 73 74 76 77 
 46 
 1 2 3 4 7 12 15 17 19 22 23 25 
 26 28 29 32 33 34 36 37 38 41 42 43 
 44 45 46 47 48 49 50 51 53 56 59 61 
 62 63 68 70 71 72 73 75 76 77 
 60 
 1 3 4 5 6 8 9 11 13 14 15 16 
 17 18 19 21 23 24 25 26 27 31 32 33 
 35 37 38 39 41 42 43 44 45 46 47 48 
 49 50 51 52 53 54 55 56 57 59 60 61 
 62 63 64 65 66 67 68 69 70 73 75 76 
 22 
 6 7 8 10 15 16 19 24 27 29 33 35 
 39 40 47 51 54 63 70 75 76 77 
 48 
 1 3 4 7 8 9 10 13 15 16 17 18 
 20 24 26 28 29 30 32 33 34 35 37 38 
 39 40 41 42 43 44 45 47 50 51 52 54 
 57 58 59 64 66 67 68 69 70 71 73 77 
 40 
 3 5 6 7 10 12 13 14 15 16 17 18 
 25 26 27 28 30 31 33 38 39 42 45 47 
 48 50 53 54 55 57 58 59 67 68 69 71 
 72 73 74 75 
 33 
 4 5 9 10 13 14 18 19 21 22 25 26 
 27 28 29 33 36 37 38 39 40 41 45 46 
 50 52 54 60 65 66 71 73 76 
 67 
 1 2 3 4 5 8 9 10 11 12 13 14 
 15 16 17 19 20 22 24 25 26 27 28 29 
 30 31 32 33 34 35 36 37 38 39 40 42 
 43 44 45 47 48 49 50 51 52 53 54 55 
 57 58 60 61 62 63 64 65 67 68 69 70 
 71 72 73 74 75 76 77 
 59 
 1 4 5 6 8 9 10 11 12 13 14 15 
 17 18 19 20 21 22 23 24 25 28 30 31 
 32 33 34 36 37 38 39 41 42 43 44 46 
 47 48 49 50 51 52 54 56 57 58 59 61 
 62 63 65 66 67 70 72 73 74 75 77 
 37 
 3 4 5 6 9 11 12 13 16 18 19 20 
 21 24 25 27 29 31 33 38 43 44 45 46 
 48 49 50 53 57 60 67 68 70 71 73 76 
 77 
 39 
 4 5 10 12 13 14 16 18 25 28 29 30 
 31 33 36 38 41 42 43 44 46 49 52 53 
 54 57 58 59 61 64 65 66 67 70 71 72 
 74 76 77 
 39 
 2 6 9 15 17 21 22 23 24 26 27 33 
 34 37 39 40 41 43 44 46 47 48 49 50 
 51 52 56 59 60 61 67 70 71 72 73 74 
 75 76 77 
 26 
 2 6 11 12 13 16 17 20 21 24 30 33 
 45 46 51 53 54 57 61 63 64 66 67 73 
 74 76 
 15 
 3 8 13 23 30 32 47 48 49 54 61 65 
 69 72 75 
 56 
 2 3 4 7 9 10 12 13 14 15 16 17 
 18 19 21 22 23 24 25 26 27 30 31 32 
 33 35 36 37 38 39 40 41 43 44 47 49 
 50 51 52 53 54 55 56 57 58 59 60 61 
 64 65 66 71 72 74 75 77 
 11 
 12 16 19 32 37 38 41 43 47 52 73 
 3 
 25 29 66 
 7 
 5 8 12 21 52 66 68 
 69 
 1 2 3 5 6 9 10 11 12 13 14 16 
 17 18 19 20 21 22 23 24 25 26 27 28 
 29 30 31 32 33 34 35 36 37 38 39 40 
 41 43 44 46 48 49 50 51 52 53 54 55 
 56 57 58 59 60 61 62 63 64 65 66 67 
 68 69 70 71 72 73 74 76 77 
 50 
 1 3 4 5 6 7 8 10 11 13 14 15 
 17 18 19 20 21 23 25 30 31 33 35 38 
 40 42 43 44 45 46 49 50 51 52 56 58 
 59 61 62 63 65 66 68 69 71 72 73 74 
 75 76 
 39 
 4 10 11 12 13 15 16 19 23 24 25 28 
 29 33 35 36 37 38 39 41 43 48 49 51 
 52 53 55 58 59 60 61 65 67 68 69 71 
 72 76 77 
 21 
 2 6 14 16 19 21 23 24 27 30 36 37 
 38 39 41 47 50 54 55 68 69 
 46 
 3 4 6 7 9 11 12 13 14 15 16 18 
 20 22 23 24 25 27 28 31 33 35 37 39 
 41 43 44 46 49 50 51 53 54 55 56 59 
 61 62 65 66 67 69 71 75 76 77 
 13 
 18 23 33 34 38 46 54 57 59 67 71 73 
 75 
 71 
 2 3 4 5 6 7 8 9 10 11 12 13 
 14 15 16 18 19 20 21 22 23 24 25 26 
 27 28 29 30 31 32 33 34 35 36 37 38 
 40 41 42 43 44 45 46 47 48 49 51 52 
 53 54 55 56 57 58 59 60 61 62 63 64 
 65 66 67 68 69 70 71 73 74 76 77 
 42 
 2 4 11 13 16 17 18 19 20 21 22 23 
 24 29 30 31 32 33 37 40 41 42 44 45 
 46 49 51 53 56 57 58 60 62 64 65 66 
 68 69 71 75 76 77 
 16 
 3 14 17 20 22 29 35 39 44 45 47 50 
 56 65 68 73 
 49 
 1 2 3 4 5 6 7 9 10 12 13 14 
 15 20 24 25 26 27 30 37 38 41 44 45 
 46 47 49 50 52 53 54 57 58 59 60 61 
 62 64 65 66 67 68 70 71 72 73 75 76 
 77 
 18 
 3 5 7 16 20 21 31 35 36 37 40 42 
 43 59 62 63 64 70 
 43 
 2 4 5 7 13 15 17 18 19 20 21 22 
 23 25 27 29 32 36 37 39 40 42 44 45 
 47 48 49 50 53 54 55 57 58 62 63 65 
 67 68 72 73 74 75 76 
 10 
 7 14 21 33 40 42 47 61 71 72 
 